; Benchmark for LTL-sketching problem
(set-logic QF_UF)
(set-info :status unknown)
(declare-fun z_1_0_2 () Bool)
(declare-fun z_1_0_1 () Bool)
(declare-fun z_1_0_0 () Bool)
(declare-fun z_0_0_0 () Bool)
(declare-fun z_0_0_1 () Bool)
(declare-fun z_0_0_2 () Bool)
(declare-fun z_1_1_2 () Bool)
(declare-fun z_1_1_1 () Bool)
(declare-fun z_1_1_0 () Bool)
(declare-fun z_0_1_0 () Bool)
(declare-fun z_0_1_1 () Bool)
(declare-fun z_0_1_2 () Bool)
(declare-fun z_1_2_6 () Bool)
(declare-fun z_1_2_5 () Bool)
(declare-fun z_1_2_4 () Bool)
(declare-fun z_1_2_3 () Bool)
(declare-fun z_1_2_2 () Bool)
(declare-fun z_1_2_1 () Bool)
(declare-fun z_1_2_0 () Bool)
(declare-fun z_0_2_0 () Bool)
(declare-fun z_0_2_1 () Bool)
(declare-fun z_0_2_2 () Bool)
(declare-fun z_0_2_3 () Bool)
(declare-fun z_0_2_4 () Bool)
(declare-fun z_0_2_5 () Bool)
(declare-fun z_0_2_6 () Bool)
(declare-fun z_1_3_2 () Bool)
(declare-fun z_1_3_1 () Bool)
(declare-fun z_1_3_0 () Bool)
(declare-fun z_0_3_0 () Bool)
(declare-fun z_0_3_1 () Bool)
(declare-fun z_0_3_2 () Bool)
(declare-fun z_1_4_1 () Bool)
(declare-fun z_1_4_0 () Bool)
(declare-fun z_0_4_0 () Bool)
(declare-fun z_0_4_1 () Bool)
(declare-fun z_1_5_5 () Bool)
(declare-fun z_1_5_4 () Bool)
(declare-fun z_1_5_3 () Bool)
(declare-fun z_1_5_2 () Bool)
(declare-fun z_1_5_1 () Bool)
(declare-fun z_1_5_0 () Bool)
(declare-fun z_0_5_0 () Bool)
(declare-fun z_0_5_1 () Bool)
(declare-fun z_0_5_2 () Bool)
(declare-fun z_0_5_3 () Bool)
(declare-fun z_0_5_4 () Bool)
(declare-fun z_0_5_5 () Bool)
(declare-fun z_1_6_4 () Bool)
(declare-fun z_1_6_3 () Bool)
(declare-fun z_1_6_2 () Bool)
(declare-fun z_1_6_1 () Bool)
(declare-fun z_1_6_0 () Bool)
(declare-fun z_0_6_0 () Bool)
(declare-fun z_0_6_1 () Bool)
(declare-fun z_0_6_2 () Bool)
(declare-fun z_0_6_3 () Bool)
(declare-fun z_0_6_4 () Bool)
(declare-fun z_1_7_6 () Bool)
(declare-fun z_1_7_5 () Bool)
(declare-fun z_1_7_4 () Bool)
(declare-fun z_1_7_3 () Bool)
(declare-fun z_1_7_2 () Bool)
(declare-fun z_1_7_1 () Bool)
(declare-fun z_1_7_0 () Bool)
(declare-fun z_0_7_0 () Bool)
(declare-fun z_0_7_1 () Bool)
(declare-fun z_0_7_2 () Bool)
(declare-fun z_0_7_3 () Bool)
(declare-fun z_0_7_4 () Bool)
(declare-fun z_0_7_5 () Bool)
(declare-fun z_0_7_6 () Bool)
(declare-fun z_1_8_5 () Bool)
(declare-fun z_1_8_4 () Bool)
(declare-fun z_1_8_3 () Bool)
(declare-fun z_1_8_2 () Bool)
(declare-fun z_1_8_1 () Bool)
(declare-fun z_1_8_0 () Bool)
(declare-fun z_0_8_0 () Bool)
(declare-fun z_0_8_1 () Bool)
(declare-fun z_0_8_2 () Bool)
(declare-fun z_0_8_3 () Bool)
(declare-fun z_0_8_4 () Bool)
(declare-fun z_0_8_5 () Bool)
(declare-fun z_1_9_6 () Bool)
(declare-fun z_1_9_5 () Bool)
(declare-fun z_1_9_4 () Bool)
(declare-fun z_1_9_3 () Bool)
(declare-fun z_1_9_2 () Bool)
(declare-fun z_1_9_1 () Bool)
(declare-fun z_1_9_0 () Bool)
(declare-fun z_0_9_0 () Bool)
(declare-fun z_0_9_1 () Bool)
(declare-fun z_0_9_2 () Bool)
(declare-fun z_0_9_3 () Bool)
(declare-fun z_0_9_4 () Bool)
(declare-fun z_0_9_5 () Bool)
(declare-fun z_0_9_6 () Bool)
(declare-fun z_1_10_4 () Bool)
(declare-fun z_1_10_3 () Bool)
(declare-fun z_1_10_2 () Bool)
(declare-fun z_1_10_1 () Bool)
(declare-fun z_1_10_0 () Bool)
(declare-fun z_0_10_0 () Bool)
(declare-fun z_0_10_1 () Bool)
(declare-fun z_0_10_2 () Bool)
(declare-fun z_0_10_3 () Bool)
(declare-fun z_0_10_4 () Bool)
(declare-fun z_1_11_7 () Bool)
(declare-fun z_1_11_6 () Bool)
(declare-fun z_1_11_5 () Bool)
(declare-fun z_1_11_4 () Bool)
(declare-fun z_1_11_3 () Bool)
(declare-fun z_1_11_2 () Bool)
(declare-fun z_1_11_1 () Bool)
(declare-fun z_1_11_0 () Bool)
(declare-fun z_0_11_0 () Bool)
(declare-fun z_0_11_1 () Bool)
(declare-fun z_0_11_2 () Bool)
(declare-fun z_0_11_3 () Bool)
(declare-fun z_0_11_4 () Bool)
(declare-fun z_0_11_5 () Bool)
(declare-fun z_0_11_6 () Bool)
(declare-fun z_0_11_7 () Bool)
(declare-fun z_1_12_6 () Bool)
(declare-fun z_1_12_5 () Bool)
(declare-fun z_1_12_4 () Bool)
(declare-fun z_1_12_3 () Bool)
(declare-fun z_1_12_2 () Bool)
(declare-fun z_1_12_1 () Bool)
(declare-fun z_1_12_0 () Bool)
(declare-fun z_0_12_0 () Bool)
(declare-fun z_0_12_1 () Bool)
(declare-fun z_0_12_2 () Bool)
(declare-fun z_0_12_3 () Bool)
(declare-fun z_0_12_4 () Bool)
(declare-fun z_0_12_5 () Bool)
(declare-fun z_0_12_6 () Bool)
(declare-fun z_1_13_6 () Bool)
(declare-fun z_1_13_5 () Bool)
(declare-fun z_1_13_4 () Bool)
(declare-fun z_1_13_3 () Bool)
(declare-fun z_1_13_2 () Bool)
(declare-fun z_1_13_1 () Bool)
(declare-fun z_1_13_0 () Bool)
(declare-fun z_0_13_0 () Bool)
(declare-fun z_0_13_1 () Bool)
(declare-fun z_0_13_2 () Bool)
(declare-fun z_0_13_3 () Bool)
(declare-fun z_0_13_4 () Bool)
(declare-fun z_0_13_5 () Bool)
(declare-fun z_0_13_6 () Bool)
(declare-fun z_1_14_5 () Bool)
(declare-fun z_1_14_4 () Bool)
(declare-fun z_1_14_3 () Bool)
(declare-fun z_1_14_2 () Bool)
(declare-fun z_1_14_1 () Bool)
(declare-fun z_1_14_0 () Bool)
(declare-fun z_0_14_0 () Bool)
(declare-fun z_0_14_1 () Bool)
(declare-fun z_0_14_2 () Bool)
(declare-fun z_0_14_3 () Bool)
(declare-fun z_0_14_4 () Bool)
(declare-fun z_0_14_5 () Bool)
(declare-fun z_1_15_6 () Bool)
(declare-fun z_1_15_5 () Bool)
(declare-fun z_1_15_4 () Bool)
(declare-fun z_1_15_3 () Bool)
(declare-fun z_1_15_2 () Bool)
(declare-fun z_1_15_1 () Bool)
(declare-fun z_1_15_0 () Bool)
(declare-fun z_0_15_0 () Bool)
(declare-fun z_0_15_1 () Bool)
(declare-fun z_0_15_2 () Bool)
(declare-fun z_0_15_3 () Bool)
(declare-fun z_0_15_4 () Bool)
(declare-fun z_0_15_5 () Bool)
(declare-fun z_0_15_6 () Bool)
(declare-fun z_1_16_5 () Bool)
(declare-fun z_1_16_4 () Bool)
(declare-fun z_1_16_3 () Bool)
(declare-fun z_1_16_2 () Bool)
(declare-fun z_1_16_1 () Bool)
(declare-fun z_1_16_0 () Bool)
(declare-fun z_0_16_0 () Bool)
(declare-fun z_0_16_1 () Bool)
(declare-fun z_0_16_2 () Bool)
(declare-fun z_0_16_3 () Bool)
(declare-fun z_0_16_4 () Bool)
(declare-fun z_0_16_5 () Bool)
(declare-fun z_1_17_6 () Bool)
(declare-fun z_1_17_5 () Bool)
(declare-fun z_1_17_4 () Bool)
(declare-fun z_1_17_3 () Bool)
(declare-fun z_1_17_2 () Bool)
(declare-fun z_1_17_1 () Bool)
(declare-fun z_1_17_0 () Bool)
(declare-fun z_0_17_0 () Bool)
(declare-fun z_0_17_1 () Bool)
(declare-fun z_0_17_2 () Bool)
(declare-fun z_0_17_3 () Bool)
(declare-fun z_0_17_4 () Bool)
(declare-fun z_0_17_5 () Bool)
(declare-fun z_0_17_6 () Bool)
(declare-fun z_1_18_5 () Bool)
(declare-fun z_1_18_4 () Bool)
(declare-fun z_1_18_3 () Bool)
(declare-fun z_1_18_2 () Bool)
(declare-fun z_1_18_1 () Bool)
(declare-fun z_1_18_0 () Bool)
(declare-fun z_0_18_0 () Bool)
(declare-fun z_0_18_1 () Bool)
(declare-fun z_0_18_2 () Bool)
(declare-fun z_0_18_3 () Bool)
(declare-fun z_0_18_4 () Bool)
(declare-fun z_0_18_5 () Bool)
(declare-fun z_1_19_5 () Bool)
(declare-fun z_1_19_4 () Bool)
(declare-fun z_1_19_3 () Bool)
(declare-fun z_1_19_2 () Bool)
(declare-fun z_1_19_1 () Bool)
(declare-fun z_1_19_0 () Bool)
(declare-fun z_0_19_0 () Bool)
(declare-fun z_0_19_1 () Bool)
(declare-fun z_0_19_2 () Bool)
(declare-fun z_0_19_3 () Bool)
(declare-fun z_0_19_4 () Bool)
(declare-fun z_0_19_5 () Bool)
(declare-fun z_3_0_0 () Bool)
(declare-fun z_2_0_0 () Bool)
(declare-fun z_3_0_1 () Bool)
(declare-fun z_2_0_1 () Bool)
(declare-fun z_3_0_2 () Bool)
(declare-fun z_2_0_2 () Bool)
(declare-fun z_3_1_0 () Bool)
(declare-fun z_2_1_0 () Bool)
(declare-fun z_3_1_1 () Bool)
(declare-fun z_2_1_1 () Bool)
(declare-fun z_3_1_2 () Bool)
(declare-fun z_2_1_2 () Bool)
(declare-fun z_3_2_0 () Bool)
(declare-fun z_2_2_0 () Bool)
(declare-fun z_3_2_1 () Bool)
(declare-fun z_2_2_1 () Bool)
(declare-fun z_3_2_2 () Bool)
(declare-fun z_2_2_2 () Bool)
(declare-fun z_3_2_3 () Bool)
(declare-fun z_2_2_3 () Bool)
(declare-fun z_3_2_4 () Bool)
(declare-fun z_2_2_4 () Bool)
(declare-fun z_3_2_5 () Bool)
(declare-fun z_2_2_5 () Bool)
(declare-fun z_3_2_6 () Bool)
(declare-fun z_2_2_6 () Bool)
(declare-fun z_3_3_0 () Bool)
(declare-fun z_2_3_0 () Bool)
(declare-fun z_3_3_1 () Bool)
(declare-fun z_2_3_1 () Bool)
(declare-fun z_3_3_2 () Bool)
(declare-fun z_2_3_2 () Bool)
(declare-fun z_3_4_0 () Bool)
(declare-fun z_2_4_0 () Bool)
(declare-fun z_3_4_1 () Bool)
(declare-fun z_2_4_1 () Bool)
(declare-fun z_3_5_0 () Bool)
(declare-fun z_2_5_0 () Bool)
(declare-fun z_3_5_1 () Bool)
(declare-fun z_2_5_1 () Bool)
(declare-fun z_3_5_2 () Bool)
(declare-fun z_2_5_2 () Bool)
(declare-fun z_3_5_3 () Bool)
(declare-fun z_2_5_3 () Bool)
(declare-fun z_3_5_4 () Bool)
(declare-fun z_2_5_4 () Bool)
(declare-fun z_3_5_5 () Bool)
(declare-fun z_2_5_5 () Bool)
(declare-fun z_3_6_0 () Bool)
(declare-fun z_2_6_0 () Bool)
(declare-fun z_3_6_1 () Bool)
(declare-fun z_2_6_1 () Bool)
(declare-fun z_3_6_2 () Bool)
(declare-fun z_2_6_2 () Bool)
(declare-fun z_3_6_3 () Bool)
(declare-fun z_2_6_3 () Bool)
(declare-fun z_3_6_4 () Bool)
(declare-fun z_2_6_4 () Bool)
(declare-fun z_3_7_0 () Bool)
(declare-fun z_2_7_0 () Bool)
(declare-fun z_3_7_1 () Bool)
(declare-fun z_2_7_1 () Bool)
(declare-fun z_3_7_2 () Bool)
(declare-fun z_2_7_2 () Bool)
(declare-fun z_3_7_3 () Bool)
(declare-fun z_2_7_3 () Bool)
(declare-fun z_3_7_4 () Bool)
(declare-fun z_2_7_4 () Bool)
(declare-fun z_3_7_5 () Bool)
(declare-fun z_2_7_5 () Bool)
(declare-fun z_3_7_6 () Bool)
(declare-fun z_2_7_6 () Bool)
(declare-fun z_3_8_0 () Bool)
(declare-fun z_2_8_0 () Bool)
(declare-fun z_3_8_1 () Bool)
(declare-fun z_2_8_1 () Bool)
(declare-fun z_3_8_2 () Bool)
(declare-fun z_2_8_2 () Bool)
(declare-fun z_3_8_3 () Bool)
(declare-fun z_2_8_3 () Bool)
(declare-fun z_3_8_4 () Bool)
(declare-fun z_2_8_4 () Bool)
(declare-fun z_3_8_5 () Bool)
(declare-fun z_2_8_5 () Bool)
(declare-fun z_3_9_0 () Bool)
(declare-fun z_2_9_0 () Bool)
(declare-fun z_3_9_1 () Bool)
(declare-fun z_2_9_1 () Bool)
(declare-fun z_3_9_2 () Bool)
(declare-fun z_2_9_2 () Bool)
(declare-fun z_3_9_3 () Bool)
(declare-fun z_2_9_3 () Bool)
(declare-fun z_3_9_4 () Bool)
(declare-fun z_2_9_4 () Bool)
(declare-fun z_3_9_5 () Bool)
(declare-fun z_2_9_5 () Bool)
(declare-fun z_3_9_6 () Bool)
(declare-fun z_2_9_6 () Bool)
(declare-fun z_3_10_0 () Bool)
(declare-fun z_2_10_0 () Bool)
(declare-fun z_3_10_1 () Bool)
(declare-fun z_2_10_1 () Bool)
(declare-fun z_3_10_2 () Bool)
(declare-fun z_2_10_2 () Bool)
(declare-fun z_3_10_3 () Bool)
(declare-fun z_2_10_3 () Bool)
(declare-fun z_3_10_4 () Bool)
(declare-fun z_2_10_4 () Bool)
(declare-fun z_3_11_0 () Bool)
(declare-fun z_2_11_0 () Bool)
(declare-fun z_3_11_1 () Bool)
(declare-fun z_2_11_1 () Bool)
(declare-fun z_3_11_2 () Bool)
(declare-fun z_2_11_2 () Bool)
(declare-fun z_3_11_3 () Bool)
(declare-fun z_2_11_3 () Bool)
(declare-fun z_3_11_4 () Bool)
(declare-fun z_2_11_4 () Bool)
(declare-fun z_3_11_5 () Bool)
(declare-fun z_2_11_5 () Bool)
(declare-fun z_3_11_6 () Bool)
(declare-fun z_2_11_6 () Bool)
(declare-fun z_3_11_7 () Bool)
(declare-fun z_2_11_7 () Bool)
(declare-fun z_3_12_0 () Bool)
(declare-fun z_2_12_0 () Bool)
(declare-fun z_3_12_1 () Bool)
(declare-fun z_2_12_1 () Bool)
(declare-fun z_3_12_2 () Bool)
(declare-fun z_2_12_2 () Bool)
(declare-fun z_3_12_3 () Bool)
(declare-fun z_2_12_3 () Bool)
(declare-fun z_3_12_4 () Bool)
(declare-fun z_2_12_4 () Bool)
(declare-fun z_3_12_5 () Bool)
(declare-fun z_2_12_5 () Bool)
(declare-fun z_3_12_6 () Bool)
(declare-fun z_2_12_6 () Bool)
(declare-fun z_3_13_0 () Bool)
(declare-fun z_2_13_0 () Bool)
(declare-fun z_3_13_1 () Bool)
(declare-fun z_2_13_1 () Bool)
(declare-fun z_3_13_2 () Bool)
(declare-fun z_2_13_2 () Bool)
(declare-fun z_3_13_3 () Bool)
(declare-fun z_2_13_3 () Bool)
(declare-fun z_3_13_4 () Bool)
(declare-fun z_2_13_4 () Bool)
(declare-fun z_3_13_5 () Bool)
(declare-fun z_2_13_5 () Bool)
(declare-fun z_3_13_6 () Bool)
(declare-fun z_2_13_6 () Bool)
(declare-fun z_3_14_0 () Bool)
(declare-fun z_2_14_0 () Bool)
(declare-fun z_3_14_1 () Bool)
(declare-fun z_2_14_1 () Bool)
(declare-fun z_3_14_2 () Bool)
(declare-fun z_2_14_2 () Bool)
(declare-fun z_3_14_3 () Bool)
(declare-fun z_2_14_3 () Bool)
(declare-fun z_3_14_4 () Bool)
(declare-fun z_2_14_4 () Bool)
(declare-fun z_3_14_5 () Bool)
(declare-fun z_2_14_5 () Bool)
(declare-fun z_3_15_0 () Bool)
(declare-fun z_2_15_0 () Bool)
(declare-fun z_3_15_1 () Bool)
(declare-fun z_2_15_1 () Bool)
(declare-fun z_3_15_2 () Bool)
(declare-fun z_2_15_2 () Bool)
(declare-fun z_3_15_3 () Bool)
(declare-fun z_2_15_3 () Bool)
(declare-fun z_3_15_4 () Bool)
(declare-fun z_2_15_4 () Bool)
(declare-fun z_3_15_5 () Bool)
(declare-fun z_2_15_5 () Bool)
(declare-fun z_3_15_6 () Bool)
(declare-fun z_2_15_6 () Bool)
(declare-fun z_3_16_0 () Bool)
(declare-fun z_2_16_0 () Bool)
(declare-fun z_3_16_1 () Bool)
(declare-fun z_2_16_1 () Bool)
(declare-fun z_3_16_2 () Bool)
(declare-fun z_2_16_2 () Bool)
(declare-fun z_3_16_3 () Bool)
(declare-fun z_2_16_3 () Bool)
(declare-fun z_3_16_4 () Bool)
(declare-fun z_2_16_4 () Bool)
(declare-fun z_3_16_5 () Bool)
(declare-fun z_2_16_5 () Bool)
(declare-fun z_3_17_0 () Bool)
(declare-fun z_2_17_0 () Bool)
(declare-fun z_3_17_1 () Bool)
(declare-fun z_2_17_1 () Bool)
(declare-fun z_3_17_2 () Bool)
(declare-fun z_2_17_2 () Bool)
(declare-fun z_3_17_3 () Bool)
(declare-fun z_2_17_3 () Bool)
(declare-fun z_3_17_4 () Bool)
(declare-fun z_2_17_4 () Bool)
(declare-fun z_3_17_5 () Bool)
(declare-fun z_2_17_5 () Bool)
(declare-fun z_3_17_6 () Bool)
(declare-fun z_2_17_6 () Bool)
(declare-fun z_3_18_0 () Bool)
(declare-fun z_2_18_0 () Bool)
(declare-fun z_3_18_1 () Bool)
(declare-fun z_2_18_1 () Bool)
(declare-fun z_3_18_2 () Bool)
(declare-fun z_2_18_2 () Bool)
(declare-fun z_3_18_3 () Bool)
(declare-fun z_2_18_3 () Bool)
(declare-fun z_3_18_4 () Bool)
(declare-fun z_2_18_4 () Bool)
(declare-fun z_3_18_5 () Bool)
(declare-fun z_2_18_5 () Bool)
(declare-fun z_3_19_0 () Bool)
(declare-fun z_2_19_0 () Bool)
(declare-fun z_3_19_1 () Bool)
(declare-fun z_2_19_1 () Bool)
(declare-fun z_3_19_2 () Bool)
(declare-fun z_2_19_2 () Bool)
(declare-fun z_3_19_3 () Bool)
(declare-fun z_2_19_3 () Bool)
(declare-fun z_3_19_4 () Bool)
(declare-fun z_2_19_4 () Bool)
(declare-fun z_3_19_5 () Bool)
(declare-fun z_2_19_5 () Bool)
(assert
 (= z_0_0_0 (and z_1_0_0 z_1_0_1 z_1_0_2)))
(assert
 (let (($x30 (and z_1_0_1 z_1_0_2)))
 (= z_0_0_1 $x30)))
(assert
 (let (($x30 (and z_1_0_1 z_1_0_2)))
 (= z_0_0_2 $x30)))
(assert
 (= z_0_1_0 (and z_1_1_0 z_1_1_1 z_1_1_2)))
(assert
 (= z_0_1_1 (and z_1_1_1 z_1_1_2)))
(assert
 (= z_0_1_2 (and z_1_1_2)))
(assert
 (let (($x55 (and z_1_2_0 z_1_2_1 z_1_2_2 z_1_2_3 z_1_2_4 z_1_2_5 z_1_2_6)))
 (= z_0_2_0 $x55)))
(assert
 (= z_0_2_1 (and z_1_2_1 z_1_2_2 z_1_2_3 z_1_2_4 z_1_2_5 z_1_2_6)))
(assert
 (= z_0_2_2 (and z_1_2_2 z_1_2_3 z_1_2_4 z_1_2_5 z_1_2_6)))
(assert
 (= z_0_2_3 (and z_1_2_3 z_1_2_4 z_1_2_5 z_1_2_6)))
(assert
 (let (($x67 (and z_1_2_4 z_1_2_5 z_1_2_6)))
 (= z_0_2_4 $x67)))
(assert
 (let (($x67 (and z_1_2_4 z_1_2_5 z_1_2_6)))
 (= z_0_2_5 $x67)))
(assert
 (let (($x67 (and z_1_2_4 z_1_2_5 z_1_2_6)))
 (= z_0_2_6 $x67)))
(assert
 (= z_0_3_0 (and z_1_3_0 z_1_3_1 z_1_3_2)))
(assert
 (= z_0_3_1 (and z_1_3_1 z_1_3_2)))
(assert
 (= z_0_3_2 (and z_1_3_2)))
(assert
 (= z_0_4_0 (and z_1_4_0 z_1_4_1)))
(assert
 (= z_0_4_1 (and z_1_4_1)))
(assert
 (= z_0_5_0 (and z_1_5_0 z_1_5_1 z_1_5_2 z_1_5_3 z_1_5_4 z_1_5_5)))
(assert
 (= z_0_5_1 (and z_1_5_1 z_1_5_2 z_1_5_3 z_1_5_4 z_1_5_5)))
(assert
 (= z_0_5_2 (and z_1_5_2 z_1_5_3 z_1_5_4 z_1_5_5)))
(assert
 (let (($x111 (and z_1_5_3 z_1_5_4 z_1_5_5)))
 (= z_0_5_3 $x111)))
(assert
 (let (($x111 (and z_1_5_3 z_1_5_4 z_1_5_5)))
 (= z_0_5_4 $x111)))
(assert
 (let (($x111 (and z_1_5_3 z_1_5_4 z_1_5_5)))
 (= z_0_5_5 $x111)))
(assert
 (= z_0_6_0 (and z_1_6_0 z_1_6_1 z_1_6_2 z_1_6_3 z_1_6_4)))
(assert
 (= z_0_6_1 (and z_1_6_1 z_1_6_2 z_1_6_3 z_1_6_4)))
(assert
 (let (($x129 (and z_1_6_2 z_1_6_3 z_1_6_4)))
 (= z_0_6_2 $x129)))
(assert
 (let (($x129 (and z_1_6_2 z_1_6_3 z_1_6_4)))
 (= z_0_6_3 $x129)))
(assert
 (let (($x129 (and z_1_6_2 z_1_6_3 z_1_6_4)))
 (= z_0_6_4 $x129)))
(assert
 (let (($x143 (and z_1_7_0 z_1_7_1 z_1_7_2 z_1_7_3 z_1_7_4 z_1_7_5 z_1_7_6)))
 (= z_0_7_0 $x143)))
(assert
 (= z_0_7_1 (and z_1_7_1 z_1_7_2 z_1_7_3 z_1_7_4 z_1_7_5 z_1_7_6)))
(assert
 (= z_0_7_2 (and z_1_7_2 z_1_7_3 z_1_7_4 z_1_7_5 z_1_7_6)))
(assert
 (= z_0_7_3 (and z_1_7_3 z_1_7_4 z_1_7_5 z_1_7_6)))
(assert
 (let (($x155 (and z_1_7_4 z_1_7_5 z_1_7_6)))
 (= z_0_7_4 $x155)))
(assert
 (let (($x155 (and z_1_7_4 z_1_7_5 z_1_7_6)))
 (= z_0_7_5 $x155)))
(assert
 (let (($x155 (and z_1_7_4 z_1_7_5 z_1_7_6)))
 (= z_0_7_6 $x155)))
(assert
 (= z_0_8_0 (and z_1_8_0 z_1_8_1 z_1_8_2 z_1_8_3 z_1_8_4 z_1_8_5)))
(assert
 (= z_0_8_1 (and z_1_8_1 z_1_8_2 z_1_8_3 z_1_8_4 z_1_8_5)))
(assert
 (let (($x174 (and z_1_8_2 z_1_8_3 z_1_8_4 z_1_8_5)))
 (= z_0_8_2 $x174)))
(assert
 (let (($x174 (and z_1_8_2 z_1_8_3 z_1_8_4 z_1_8_5)))
 (= z_0_8_3 $x174)))
(assert
 (let (($x174 (and z_1_8_2 z_1_8_3 z_1_8_4 z_1_8_5)))
 (= z_0_8_4 $x174)))
(assert
 (let (($x174 (and z_1_8_2 z_1_8_3 z_1_8_4 z_1_8_5)))
 (= z_0_8_5 $x174)))
(assert
 (let (($x190 (and z_1_9_0 z_1_9_1 z_1_9_2 z_1_9_3 z_1_9_4 z_1_9_5 z_1_9_6)))
 (= z_0_9_0 $x190)))
(assert
 (= z_0_9_1 (and z_1_9_1 z_1_9_2 z_1_9_3 z_1_9_4 z_1_9_5 z_1_9_6)))
(assert
 (= z_0_9_2 (and z_1_9_2 z_1_9_3 z_1_9_4 z_1_9_5 z_1_9_6)))
(assert
 (let (($x199 (and z_1_9_3 z_1_9_4 z_1_9_5 z_1_9_6)))
 (= z_0_9_3 $x199)))
(assert
 (let (($x199 (and z_1_9_3 z_1_9_4 z_1_9_5 z_1_9_6)))
 (= z_0_9_4 $x199)))
(assert
 (let (($x199 (and z_1_9_3 z_1_9_4 z_1_9_5 z_1_9_6)))
 (= z_0_9_5 $x199)))
(assert
 (let (($x199 (and z_1_9_3 z_1_9_4 z_1_9_5 z_1_9_6)))
 (= z_0_9_6 $x199)))
(assert
 (= z_0_10_0 (and z_1_10_0 z_1_10_1 z_1_10_2 z_1_10_3 z_1_10_4)))
(assert
 (= z_0_10_1 (and z_1_10_1 z_1_10_2 z_1_10_3 z_1_10_4)))
(assert
 (let (($x219 (and z_1_10_2 z_1_10_3 z_1_10_4)))
 (= z_0_10_2 $x219)))
(assert
 (let (($x219 (and z_1_10_2 z_1_10_3 z_1_10_4)))
 (= z_0_10_3 $x219)))
(assert
 (let (($x219 (and z_1_10_2 z_1_10_3 z_1_10_4)))
 (= z_0_10_4 $x219)))
(assert
 (let (($x234 (and z_1_11_0 z_1_11_1 z_1_11_2 z_1_11_3 z_1_11_4 z_1_11_5 z_1_11_6 z_1_11_7)))
 (= z_0_11_0 $x234)))
(assert
 (let (($x237 (and z_1_11_1 z_1_11_2 z_1_11_3 z_1_11_4 z_1_11_5 z_1_11_6 z_1_11_7)))
 (= z_0_11_1 $x237)))
(assert
 (= z_0_11_2 (and z_1_11_2 z_1_11_3 z_1_11_4 z_1_11_5 z_1_11_6 z_1_11_7)))
(assert
 (= z_0_11_3 (and z_1_11_3 z_1_11_4 z_1_11_5 z_1_11_6 z_1_11_7)))
(assert
 (let (($x246 (and z_1_11_4 z_1_11_5 z_1_11_6 z_1_11_7)))
 (= z_0_11_4 $x246)))
(assert
 (let (($x246 (and z_1_11_4 z_1_11_5 z_1_11_6 z_1_11_7)))
 (= z_0_11_5 $x246)))
(assert
 (let (($x246 (and z_1_11_4 z_1_11_5 z_1_11_6 z_1_11_7)))
 (= z_0_11_6 $x246)))
(assert
 (let (($x246 (and z_1_11_4 z_1_11_5 z_1_11_6 z_1_11_7)))
 (= z_0_11_7 $x246)))
(assert
 (let (($x262 (and z_1_12_0 z_1_12_1 z_1_12_2 z_1_12_3 z_1_12_4 z_1_12_5 z_1_12_6)))
 (= z_0_12_0 $x262)))
(assert
 (= z_0_12_1 (and z_1_12_1 z_1_12_2 z_1_12_3 z_1_12_4 z_1_12_5 z_1_12_6)))
(assert
 (= z_0_12_2 (and z_1_12_2 z_1_12_3 z_1_12_4 z_1_12_5 z_1_12_6)))
(assert
 (let (($x271 (and z_1_12_3 z_1_12_4 z_1_12_5 z_1_12_6)))
 (= z_0_12_3 $x271)))
(assert
 (let (($x271 (and z_1_12_3 z_1_12_4 z_1_12_5 z_1_12_6)))
 (= z_0_12_4 $x271)))
(assert
 (let (($x271 (and z_1_12_3 z_1_12_4 z_1_12_5 z_1_12_6)))
 (= z_0_12_5 $x271)))
(assert
 (let (($x271 (and z_1_12_3 z_1_12_4 z_1_12_5 z_1_12_6)))
 (= z_0_12_6 $x271)))
(assert
 (let (($x287 (and z_1_13_0 z_1_13_1 z_1_13_2 z_1_13_3 z_1_13_4 z_1_13_5 z_1_13_6)))
 (= z_0_13_0 $x287)))
(assert
 (= z_0_13_1 (and z_1_13_1 z_1_13_2 z_1_13_3 z_1_13_4 z_1_13_5 z_1_13_6)))
(assert
 (= z_0_13_2 (and z_1_13_2 z_1_13_3 z_1_13_4 z_1_13_5 z_1_13_6)))
(assert
 (let (($x296 (and z_1_13_3 z_1_13_4 z_1_13_5 z_1_13_6)))
 (= z_0_13_3 $x296)))
(assert
 (let (($x296 (and z_1_13_3 z_1_13_4 z_1_13_5 z_1_13_6)))
 (= z_0_13_4 $x296)))
(assert
 (let (($x296 (and z_1_13_3 z_1_13_4 z_1_13_5 z_1_13_6)))
 (= z_0_13_5 $x296)))
(assert
 (let (($x296 (and z_1_13_3 z_1_13_4 z_1_13_5 z_1_13_6)))
 (= z_0_13_6 $x296)))
(assert
 (= z_0_14_0 (and z_1_14_0 z_1_14_1 z_1_14_2 z_1_14_3 z_1_14_4 z_1_14_5)))
(assert
 (= z_0_14_1 (and z_1_14_1 z_1_14_2 z_1_14_3 z_1_14_4 z_1_14_5)))
(assert
 (= z_0_14_2 (and z_1_14_2 z_1_14_3 z_1_14_4 z_1_14_5)))
(assert
 (= z_0_14_3 (and z_1_14_3 z_1_14_4 z_1_14_5)))
(assert
 (let (($x323 (and z_1_14_4 z_1_14_5)))
 (= z_0_14_4 $x323)))
(assert
 (let (($x323 (and z_1_14_4 z_1_14_5)))
 (= z_0_14_5 $x323)))
(assert
 (let (($x335 (and z_1_15_0 z_1_15_1 z_1_15_2 z_1_15_3 z_1_15_4 z_1_15_5 z_1_15_6)))
 (= z_0_15_0 $x335)))
(assert
 (= z_0_15_1 (and z_1_15_1 z_1_15_2 z_1_15_3 z_1_15_4 z_1_15_5 z_1_15_6)))
(assert
 (= z_0_15_2 (and z_1_15_2 z_1_15_3 z_1_15_4 z_1_15_5 z_1_15_6)))
(assert
 (= z_0_15_3 (and z_1_15_3 z_1_15_4 z_1_15_5 z_1_15_6)))
(assert
 (let (($x347 (and z_1_15_4 z_1_15_5 z_1_15_6)))
 (= z_0_15_4 $x347)))
(assert
 (let (($x347 (and z_1_15_4 z_1_15_5 z_1_15_6)))
 (= z_0_15_5 $x347)))
(assert
 (let (($x347 (and z_1_15_4 z_1_15_5 z_1_15_6)))
 (= z_0_15_6 $x347)))
(assert
 (= z_0_16_0 (and z_1_16_0 z_1_16_1 z_1_16_2 z_1_16_3 z_1_16_4 z_1_16_5)))
(assert
 (= z_0_16_1 (and z_1_16_1 z_1_16_2 z_1_16_3 z_1_16_4 z_1_16_5)))
(assert
 (let (($x366 (and z_1_16_2 z_1_16_3 z_1_16_4 z_1_16_5)))
 (= z_0_16_2 $x366)))
(assert
 (let (($x366 (and z_1_16_2 z_1_16_3 z_1_16_4 z_1_16_5)))
 (= z_0_16_3 $x366)))
(assert
 (let (($x366 (and z_1_16_2 z_1_16_3 z_1_16_4 z_1_16_5)))
 (= z_0_16_4 $x366)))
(assert
 (let (($x366 (and z_1_16_2 z_1_16_3 z_1_16_4 z_1_16_5)))
 (= z_0_16_5 $x366)))
(assert
 (let (($x382 (and z_1_17_0 z_1_17_1 z_1_17_2 z_1_17_3 z_1_17_4 z_1_17_5 z_1_17_6)))
 (= z_0_17_0 $x382)))
(assert
 (= z_0_17_1 (and z_1_17_1 z_1_17_2 z_1_17_3 z_1_17_4 z_1_17_5 z_1_17_6)))
(assert
 (= z_0_17_2 (and z_1_17_2 z_1_17_3 z_1_17_4 z_1_17_5 z_1_17_6)))
(assert
 (= z_0_17_3 (and z_1_17_3 z_1_17_4 z_1_17_5 z_1_17_6)))
(assert
 (let (($x394 (and z_1_17_4 z_1_17_5 z_1_17_6)))
 (= z_0_17_4 $x394)))
(assert
 (let (($x394 (and z_1_17_4 z_1_17_5 z_1_17_6)))
 (= z_0_17_5 $x394)))
(assert
 (let (($x394 (and z_1_17_4 z_1_17_5 z_1_17_6)))
 (= z_0_17_6 $x394)))
(assert
 (= z_0_18_0 (and z_1_18_0 z_1_18_1 z_1_18_2 z_1_18_3 z_1_18_4 z_1_18_5)))
(assert
 (= z_0_18_1 (and z_1_18_1 z_1_18_2 z_1_18_3 z_1_18_4 z_1_18_5)))
(assert
 (= z_0_18_2 (and z_1_18_2 z_1_18_3 z_1_18_4 z_1_18_5)))
(assert
 (let (($x416 (and z_1_18_3 z_1_18_4 z_1_18_5)))
 (= z_0_18_3 $x416)))
(assert
 (let (($x416 (and z_1_18_3 z_1_18_4 z_1_18_5)))
 (= z_0_18_4 $x416)))
(assert
 (let (($x416 (and z_1_18_3 z_1_18_4 z_1_18_5)))
 (= z_0_18_5 $x416)))
(assert
 (= z_0_19_0 (and z_1_19_0 z_1_19_1 z_1_19_2 z_1_19_3 z_1_19_4 z_1_19_5)))
(assert
 (= z_0_19_1 (and z_1_19_1 z_1_19_2 z_1_19_3 z_1_19_4 z_1_19_5)))
(assert
 (= z_0_19_2 (and z_1_19_2 z_1_19_3 z_1_19_4 z_1_19_5)))
(assert
 (let (($x438 (and z_1_19_3 z_1_19_4 z_1_19_5)))
 (= z_0_19_3 $x438)))
(assert
 (let (($x438 (and z_1_19_3 z_1_19_4 z_1_19_5)))
 (= z_0_19_4 $x438)))
(assert
 (let (($x438 (and z_1_19_3 z_1_19_4 z_1_19_5)))
 (= z_0_19_5 $x438)))
(assert
 (= z_1_0_0 (=> z_2_0_0 z_3_0_0)))
(assert
 (= z_1_0_1 (=> z_2_0_1 z_3_0_1)))
(assert
 (= z_1_0_2 (=> z_2_0_2 z_3_0_2)))
(assert
 (= z_1_1_0 (=> z_2_1_0 z_3_1_0)))
(assert
 (= z_1_1_1 (=> z_2_1_1 z_3_1_1)))
(assert
 (= z_1_1_2 (=> z_2_1_2 z_3_1_2)))
(assert
 (= z_1_2_0 (=> z_2_2_0 z_3_2_0)))
(assert
 (= z_1_2_1 (=> z_2_2_1 z_3_2_1)))
(assert
 (= z_1_2_2 (=> z_2_2_2 z_3_2_2)))
(assert
 (= z_1_2_3 (=> z_2_2_3 z_3_2_3)))
(assert
 (= z_1_2_4 (=> z_2_2_4 z_3_2_4)))
(assert
 (= z_1_2_5 (=> z_2_2_5 z_3_2_5)))
(assert
 (= z_1_2_6 (=> z_2_2_6 z_3_2_6)))
(assert
 (= z_1_3_0 (=> z_2_3_0 z_3_3_0)))
(assert
 (= z_1_3_1 (=> z_2_3_1 z_3_3_1)))
(assert
 (= z_1_3_2 (=> z_2_3_2 z_3_3_2)))
(assert
 (= z_1_4_0 (=> z_2_4_0 z_3_4_0)))
(assert
 (= z_1_4_1 (=> z_2_4_1 z_3_4_1)))
(assert
 (= z_1_5_0 (=> z_2_5_0 z_3_5_0)))
(assert
 (= z_1_5_1 (=> z_2_5_1 z_3_5_1)))
(assert
 (= z_1_5_2 (=> z_2_5_2 z_3_5_2)))
(assert
 (= z_1_5_3 (=> z_2_5_3 z_3_5_3)))
(assert
 (= z_1_5_4 (=> z_2_5_4 z_3_5_4)))
(assert
 (= z_1_5_5 (=> z_2_5_5 z_3_5_5)))
(assert
 (= z_1_6_0 (=> z_2_6_0 z_3_6_0)))
(assert
 (= z_1_6_1 (=> z_2_6_1 z_3_6_1)))
(assert
 (= z_1_6_2 (=> z_2_6_2 z_3_6_2)))
(assert
 (= z_1_6_3 (=> z_2_6_3 z_3_6_3)))
(assert
 (= z_1_6_4 (=> z_2_6_4 z_3_6_4)))
(assert
 (= z_1_7_0 (=> z_2_7_0 z_3_7_0)))
(assert
 (= z_1_7_1 (=> z_2_7_1 z_3_7_1)))
(assert
 (= z_1_7_2 (=> z_2_7_2 z_3_7_2)))
(assert
 (= z_1_7_3 (=> z_2_7_3 z_3_7_3)))
(assert
 (= z_1_7_4 (=> z_2_7_4 z_3_7_4)))
(assert
 (= z_1_7_5 (=> z_2_7_5 z_3_7_5)))
(assert
 (= z_1_7_6 (=> z_2_7_6 z_3_7_6)))
(assert
 (= z_1_8_0 (=> z_2_8_0 z_3_8_0)))
(assert
 (= z_1_8_1 (=> z_2_8_1 z_3_8_1)))
(assert
 (= z_1_8_2 (=> z_2_8_2 z_3_8_2)))
(assert
 (= z_1_8_3 (=> z_2_8_3 z_3_8_3)))
(assert
 (= z_1_8_4 (=> z_2_8_4 z_3_8_4)))
(assert
 (= z_1_8_5 (=> z_2_8_5 z_3_8_5)))
(assert
 (= z_1_9_0 (=> z_2_9_0 z_3_9_0)))
(assert
 (= z_1_9_1 (=> z_2_9_1 z_3_9_1)))
(assert
 (= z_1_9_2 (=> z_2_9_2 z_3_9_2)))
(assert
 (= z_1_9_3 (=> z_2_9_3 z_3_9_3)))
(assert
 (= z_1_9_4 (=> z_2_9_4 z_3_9_4)))
(assert
 (= z_1_9_5 (=> z_2_9_5 z_3_9_5)))
(assert
 (= z_1_9_6 (=> z_2_9_6 z_3_9_6)))
(assert
 (= z_1_10_0 (=> z_2_10_0 z_3_10_0)))
(assert
 (= z_1_10_1 (=> z_2_10_1 z_3_10_1)))
(assert
 (= z_1_10_2 (=> z_2_10_2 z_3_10_2)))
(assert
 (= z_1_10_3 (=> z_2_10_3 z_3_10_3)))
(assert
 (= z_1_10_4 (=> z_2_10_4 z_3_10_4)))
(assert
 (= z_1_11_0 (=> z_2_11_0 z_3_11_0)))
(assert
 (= z_1_11_1 (=> z_2_11_1 z_3_11_1)))
(assert
 (= z_1_11_2 (=> z_2_11_2 z_3_11_2)))
(assert
 (= z_1_11_3 (=> z_2_11_3 z_3_11_3)))
(assert
 (= z_1_11_4 (=> z_2_11_4 z_3_11_4)))
(assert
 (= z_1_11_5 (=> z_2_11_5 z_3_11_5)))
(assert
 (= z_1_11_6 (=> z_2_11_6 z_3_11_6)))
(assert
 (= z_1_11_7 (=> z_2_11_7 z_3_11_7)))
(assert
 (= z_1_12_0 (=> z_2_12_0 z_3_12_0)))
(assert
 (= z_1_12_1 (=> z_2_12_1 z_3_12_1)))
(assert
 (= z_1_12_2 (=> z_2_12_2 z_3_12_2)))
(assert
 (= z_1_12_3 (=> z_2_12_3 z_3_12_3)))
(assert
 (= z_1_12_4 (=> z_2_12_4 z_3_12_4)))
(assert
 (= z_1_12_5 (=> z_2_12_5 z_3_12_5)))
(assert
 (= z_1_12_6 (=> z_2_12_6 z_3_12_6)))
(assert
 (= z_1_13_0 (=> z_2_13_0 z_3_13_0)))
(assert
 (= z_1_13_1 (=> z_2_13_1 z_3_13_1)))
(assert
 (= z_1_13_2 (=> z_2_13_2 z_3_13_2)))
(assert
 (= z_1_13_3 (=> z_2_13_3 z_3_13_3)))
(assert
 (= z_1_13_4 (=> z_2_13_4 z_3_13_4)))
(assert
 (= z_1_13_5 (=> z_2_13_5 z_3_13_5)))
(assert
 (= z_1_13_6 (=> z_2_13_6 z_3_13_6)))
(assert
 (= z_1_14_0 (=> z_2_14_0 z_3_14_0)))
(assert
 (= z_1_14_1 (=> z_2_14_1 z_3_14_1)))
(assert
 (= z_1_14_2 (=> z_2_14_2 z_3_14_2)))
(assert
 (= z_1_14_3 (=> z_2_14_3 z_3_14_3)))
(assert
 (= z_1_14_4 (=> z_2_14_4 z_3_14_4)))
(assert
 (= z_1_14_5 (=> z_2_14_5 z_3_14_5)))
(assert
 (= z_1_15_0 (=> z_2_15_0 z_3_15_0)))
(assert
 (= z_1_15_1 (=> z_2_15_1 z_3_15_1)))
(assert
 (= z_1_15_2 (=> z_2_15_2 z_3_15_2)))
(assert
 (= z_1_15_3 (=> z_2_15_3 z_3_15_3)))
(assert
 (= z_1_15_4 (=> z_2_15_4 z_3_15_4)))
(assert
 (= z_1_15_5 (=> z_2_15_5 z_3_15_5)))
(assert
 (= z_1_15_6 (=> z_2_15_6 z_3_15_6)))
(assert
 (= z_1_16_0 (=> z_2_16_0 z_3_16_0)))
(assert
 (= z_1_16_1 (=> z_2_16_1 z_3_16_1)))
(assert
 (= z_1_16_2 (=> z_2_16_2 z_3_16_2)))
(assert
 (= z_1_16_3 (=> z_2_16_3 z_3_16_3)))
(assert
 (= z_1_16_4 (=> z_2_16_4 z_3_16_4)))
(assert
 (= z_1_16_5 (=> z_2_16_5 z_3_16_5)))
(assert
 (= z_1_17_0 (=> z_2_17_0 z_3_17_0)))
(assert
 (= z_1_17_1 (=> z_2_17_1 z_3_17_1)))
(assert
 (= z_1_17_2 (=> z_2_17_2 z_3_17_2)))
(assert
 (= z_1_17_3 (=> z_2_17_3 z_3_17_3)))
(assert
 (= z_1_17_4 (=> z_2_17_4 z_3_17_4)))
(assert
 (= z_1_17_5 (=> z_2_17_5 z_3_17_5)))
(assert
 (= z_1_17_6 (=> z_2_17_6 z_3_17_6)))
(assert
 (= z_1_18_0 (=> z_2_18_0 z_3_18_0)))
(assert
 (= z_1_18_1 (=> z_2_18_1 z_3_18_1)))
(assert
 (= z_1_18_2 (=> z_2_18_2 z_3_18_2)))
(assert
 (= z_1_18_3 (=> z_2_18_3 z_3_18_3)))
(assert
 (= z_1_18_4 (=> z_2_18_4 z_3_18_4)))
(assert
 (= z_1_18_5 (=> z_2_18_5 z_3_18_5)))
(assert
 (= z_1_19_0 (=> z_2_19_0 z_3_19_0)))
(assert
 (= z_1_19_1 (=> z_2_19_1 z_3_19_1)))
(assert
 (= z_1_19_2 (=> z_2_19_2 z_3_19_2)))
(assert
 (= z_1_19_3 (=> z_2_19_3 z_3_19_3)))
(assert
 (= z_1_19_4 (=> z_2_19_4 z_3_19_4)))
(assert
 (= z_1_19_5 (=> z_2_19_5 z_3_19_5)))
(assert
 z_2_0_0)
(assert
 z_2_0_1)
(assert
 (not z_2_0_2))
(assert
 (not z_2_1_0))
(assert
 z_2_1_1)
(assert
 (not z_2_1_2))
(assert
 z_2_2_0)
(assert
 (not z_2_2_1))
(assert
 z_2_2_2)
(assert
 (not z_2_2_3))
(assert
 (not z_2_2_4))
(assert
 (not z_2_2_5))
(assert
 z_2_2_6)
(assert
 (not z_2_3_0))
(assert
 (not z_2_3_1))
(assert
 z_2_3_2)
(assert
 (not z_2_4_0))
(assert
 z_2_4_1)
(assert
 (not z_2_5_0))
(assert
 z_2_5_1)
(assert
 z_2_5_2)
(assert
 z_2_5_3)
(assert
 z_2_5_4)
(assert
 (not z_2_5_5))
(assert
 (not z_2_6_0))
(assert
 z_2_6_1)
(assert
 z_2_6_2)
(assert
 (not z_2_6_3))
(assert
 (not z_2_6_4))
(assert
 (not z_2_7_0))
(assert
 (not z_2_7_1))
(assert
 (not z_2_7_2))
(assert
 z_2_7_3)
(assert
 z_2_7_4)
(assert
 (not z_2_7_5))
(assert
 (not z_2_7_6))
(assert
 z_2_8_0)
(assert
 z_2_8_1)
(assert
 (not z_2_8_2))
(assert
 z_2_8_3)
(assert
 z_2_8_4)
(assert
 (not z_2_8_5))
(assert
 (not z_2_9_0))
(assert
 (not z_2_9_1))
(assert
 (not z_2_9_2))
(assert
 z_2_9_3)
(assert
 (not z_2_9_4))
(assert
 z_2_9_5)
(assert
 z_2_9_6)
(assert
 z_2_10_0)
(assert
 (not z_2_10_1))
(assert
 (not z_2_10_2))
(assert
 (not z_2_10_3))
(assert
 (not z_2_10_4))
(assert
 (not z_2_11_0))
(assert
 z_2_11_1)
(assert
 (not z_2_11_2))
(assert
 z_2_11_3)
(assert
 (not z_2_11_4))
(assert
 (not z_2_11_5))
(assert
 z_2_11_6)
(assert
 z_2_11_7)
(assert
 z_2_12_0)
(assert
 z_2_12_1)
(assert
 (not z_2_12_2))
(assert
 z_2_12_3)
(assert
 z_2_12_4)
(assert
 (not z_2_12_5))
(assert
 z_2_12_6)
(assert
 (not z_2_13_0))
(assert
 (not z_2_13_1))
(assert
 z_2_13_2)
(assert
 z_2_13_3)
(assert
 (not z_2_13_4))
(assert
 z_2_13_5)
(assert
 z_2_13_6)
(assert
 z_2_14_0)
(assert
 (not z_2_14_1))
(assert
 z_2_14_2)
(assert
 (not z_2_14_3))
(assert
 (not z_2_14_4))
(assert
 (not z_2_14_5))
(assert
 (not z_2_15_0))
(assert
 (not z_2_15_1))
(assert
 z_2_15_2)
(assert
 (not z_2_15_3))
(assert
 z_2_15_4)
(assert
 z_2_15_5)
(assert
 (not z_2_15_6))
(assert
 z_2_16_0)
(assert
 (not z_2_16_1))
(assert
 z_2_16_2)
(assert
 z_2_16_3)
(assert
 (not z_2_16_4))
(assert
 z_2_16_5)
(assert
 (not z_2_17_0))
(assert
 (not z_2_17_1))
(assert
 (not z_2_17_2))
(assert
 z_2_17_3)
(assert
 z_2_17_4)
(assert
 (not z_2_17_5))
(assert
 z_2_17_6)
(assert
 (not z_2_18_0))
(assert
 z_2_18_1)
(assert
 (not z_2_18_2))
(assert
 z_2_18_3)
(assert
 (not z_2_18_4))
(assert
 (not z_2_18_5))
(assert
 (not z_2_19_0))
(assert
 (not z_2_19_1))
(assert
 (not z_2_19_2))
(assert
 z_2_19_3)
(assert
 (not z_2_19_4))
(assert
 z_2_19_5)
(assert
 (= z_0_0_0 true))
(assert
 (= z_0_1_0 true))
(assert
 (= z_0_2_0 true))
(assert
 (= z_0_3_0 true))
(assert
 (= z_0_4_0 true))
(assert
 (= z_0_5_0 true))
(assert
 (= z_0_6_0 true))
(assert
 (= z_0_7_0 true))
(assert
 (= z_0_8_0 true))
(assert
 (= z_0_9_0 true))
(assert
 (= z_0_10_0 false))
(assert
 (= z_0_11_0 false))
(assert
 (= z_0_12_0 false))
(assert
 (= z_0_13_0 false))
(assert
 (= z_0_14_0 false))
(assert
 (= z_0_15_0 false))
(assert
 (= z_0_16_0 false))
(assert
 (= z_0_17_0 false))
(assert
 (= z_0_18_0 false))
(assert
 (= z_0_19_0 false))
(assert
 (let (($x1272 (= z_3_2_4 z_3_6_3)))
 (and $x1272)))
(assert
 (let (($x1274 (= z_3_2_5 z_3_6_4)))
 (and $x1274)))
(assert
 (let (($x1276 (= z_3_2_6 z_3_6_2)))
 (and $x1276)))
(assert
 (let (($x1278 (= z_3_2_4 z_3_7_5)))
 (and $x1278)))
(assert
 (let (($x1280 (= z_3_2_5 z_3_7_6)))
 (and $x1280)))
(assert
 (let (($x1282 (= z_3_2_6 z_3_7_4)))
 (and $x1282)))
(assert
 (let (($x1284 (= z_3_3_2 z_3_4_1)))
 (and $x1284)))
(assert
 (let (($x1286 (= z_3_6_1 z_3_7_3)))
 (and $x1286)))
(assert
 (let (($x1288 (= z_3_6_2 z_3_7_4)))
 (and $x1288)))
(assert
 (let (($x1290 (= z_3_6_3 z_3_7_5)))
 (and $x1290)))
(assert
 (let (($x1292 (= z_3_6_4 z_3_7_6)))
 (and $x1292)))
(assert
 (let (($x1294 (= z_3_9_3 z_3_13_3)))
 (and $x1294)))
(assert
 (let (($x1296 (= z_3_9_4 z_3_13_4)))
 (and $x1296)))
(assert
 (let (($x1298 (= z_3_9_5 z_3_13_5)))
 (and $x1298)))
(assert
 (let (($x1300 (= z_3_9_6 z_3_13_6)))
 (and $x1300)))
(assert
 (let (($x1302 (= z_3_15_4 z_3_19_5)))
 (and $x1302)))
(assert
 (let (($x1304 (= z_3_15_5 z_3_19_3)))
 (and $x1304)))
(assert
 (let (($x1306 (= z_3_15_6 z_3_19_4)))
 (and $x1306)))
(check-sat)

